50

99 2 297
96 15 288
94 14 282
94 13 299
90 27 294
90 12 300
90 20 281
90 8 279
87 8 295
86 21 292
85 10 258
85 0 261
84 9 289
84 12 278
84 23 257
84 8 278
84 1 278
83 7 284
81 3 282
81 21 284
79 14 254
71 4 242
71 22 291
70 18 297
65 3 275
65 1 291
65 18 231
63 6 288
62 2 272
59 8 253
51 0 289
51 6 284
50 12 288
49 15 247
49 7 255
49 0 221
47 15 162
45 10 288
44 8 298
43 12 225
41 0 170
35 9 176
35 1 216
33 8 269
31 0 140
27 7 84
23 3 181
23 3 246
22 3 255
22 6 212
